c SAT Generator for power-law distributed variable frequencies
c -g u -v 4 -c 16 -k 3 -p 2.750000 -b 3.200000 -f ruf4-16-1 -u 1 -U 1 -s 4105642841
p cnf 4 16
2 3 -4 0
1 3 -4 0
2 -3 4 0
-1 2 4 0
1 2 -4 0
-1 -2 3 0
2 -3 -4 0
1 2 -3 0
-1 -3 4 0
1 -3 4 0
-1 -2 -4 0
-1 2 -3 0
-1 2 3 0
1 -2 3 0
-1 -2 -3 0
1 -3 -4 0
